<?xml version = "1.0" standalone="yes"?>
<!-- This file has been generated by DOcplex version 2.23.222  -->
<CPLEXSolution version="1.0">
 <header
   problemName="CVRP"
   objectiveValue="13072.7"
  />
 <variables>
  <variable name="x_0_1" index="0" value="1.00000"/>
  <variable name="x_0_3" index="2" value="1.00000"/>
  <variable name="x_0_7" index="6" value="1.00000"/>
  <variable name="x_0_8" index="7" value="1.00000"/>
  <variable name="x_0_10" index="9" value="1.00000"/>
  <variable name="x_0_13" index="12" value="1.00000"/>
  <variable name="x_0_16" index="15" value="1.00000"/>
  <variable name="x_0_17" index="16" value="1.00000"/>
  <variable name="x_0_19" index="18" value="1.00000"/>
  <variable name="x_0_20" index="19" value="1.00000"/>
  <variable name="x_1_11" index="30" value="1.00000"/>
  <variable name="x_2_5" index="44" value="1.00000"/>
  <variable name="x_3_0" index="60" value="1.00000"/>
  <variable name="x_4_0" index="80" value="1.00000"/>
  <variable name="x_5_0" index="100" value="1.00000"/>
  <variable name="x_6_0" index="120" value="1.00000"/>
  <variable name="x_7_0" index="140" value="1.00000"/>
  <variable name="x_8_14" index="173" value="1.00000"/>
  <variable name="x_9_0" index="180" value="1.00000"/>
  <variable name="x_10_2" index="202" value="1.00000"/>
  <variable name="x_11_0" index="220" value="1.00000"/>
  <variable name="x_12_9" index="249" value="1.00000"/>
  <variable name="x_13_12" index="272" value="1.00000"/>
  <variable name="x_14_0" index="280" value="1.00000"/>
  <variable name="x_15_0" index="300" value="1.00000"/>
  <variable name="x_16_4" index="324" value="1.00000"/>
  <variable name="x_17_18" index="357" value="1.00000"/>
  <variable name="x_18_6" index="366" value="1.00000"/>
  <variable name="x_19_0" index="380" value="1.00000"/>
  <variable name="x_20_15" index="415" value="1.00000"/>
  <variable name="u_1" index="420" value="12.00000"/>
  <variable name="u_2" index="421" value="15.00000"/>
  <variable name="u_3" index="422" value="34.00000"/>
  <variable name="u_4" index="423" value="34.00000"/>
  <variable name="u_5" index="424" value="34.00000"/>
  <variable name="u_6" index="425" value="32.00000"/>
  <variable name="u_7" index="426" value="30.00000"/>
  <variable name="u_8" index="427" value="12.00000"/>
  <variable name="u_9" index="428" value="34.00000"/>
  <variable name="u_10" index="429" value="3.00000"/>
  <variable name="u_11" index="430" value="34.00000"/>
  <variable name="u_12" index="431" value="18.00000"/>
  <variable name="u_13" index="432" value="16.00000"/>
  <variable name="u_14" index="433" value="34.00000"/>
  <variable name="u_15" index="434" value="31.00000"/>
  <variable name="u_16" index="435" value="8.00000"/>
  <variable name="u_17" index="436" value="21.00000"/>
  <variable name="u_18" index="437" value="25.00000"/>
  <variable name="u_19" index="438" value="28.00000"/>
  <variable name="u_20" index="439" value="28.00000"/>
 </variables>
</CPLEXSolution>
